c Generated map
c Size: 15 * 15, weights in range: 1 to 10, walls: True, with ratio 0.05
c dim 2 of 4
c
p sp 225 380
c graph contains 225 nodes and 380 arcs
c
a 1 16 9
a 16 1 9
a 1 2 5
a 2 1 5
a 2 17 3
a 17 2 3
a 2 3 1
a 3 2 1
a 3 18 2
a 18 3 2
a 3 4 6
a 4 3 6
a 4 19 7
a 19 4 7
a 4 5 3
a 5 4 3
a 5 20 9
a 20 5 9
a 5 6 2
a 6 5 2
a 6 21 3
a 21 6 3
a 6 7 5
a 7 6 5
a 7 22 6
a 22 7 6
a 7 8 8
a 8 7 8
a 8 23 1
a 23 8 1
a 8 9 1
a 9 8 1
a 9 24 7
a 24 9 7
a 9 10 3
a 10 9 3
a 10 25 3
a 25 10 3
a 10 11 5
a 11 10 5
a 11 26 9
a 26 11 9
a 11 12 4
a 12 11 4
a 12 27 4
a 27 12 4
a 12 13 3
a 13 12 3
a 13 28 9
a 28 13 9
a 13 14 4
a 14 13 4
a 14 29 8
a 29 14 8
a 14 15 9
a 15 14 9
a 15 30 5
a 30 15 5
a 16 31 8
a 31 16 8
a 16 17 2
a 17 16 2
a 17 32 1
a 32 17 1
a 17 18 7
a 18 17 7
a 18 19 10
a 19 18 10
a 19 34 9
a 34 19 9
a 19 20 4
a 20 19 4
a 20 35 2
a 35 20 2
a 20 21 4
a 21 20 4
a 21 36 10
a 36 21 10
a 21 22 10
a 22 21 10
a 22 23 2
a 23 22 2
a 23 38 10
a 38 23 10
a 23 24 5
a 24 23 5
a 24 39 6
a 39 24 6
a 24 25 1
a 25 24 1
a 25 40 6
a 40 25 6
a 25 26 3
a 26 25 3
a 26 41 10
a 41 26 10
a 26 27 10
a 27 26 10
a 27 42 7
a 42 27 7
a 27 28 1
a 28 27 1
a 28 43 4
a 43 28 4
a 28 29 9
a 29 28 9
a 29 44 4
a 44 29 4
a 29 30 7
a 30 29 7
a 30 45 7
a 45 30 7
a 31 46 7
a 46 31 7
a 31 32 3
a 32 31 3
a 34 49 8
a 49 34 8
a 34 35 2
a 35 34 2
a 35 50 6
a 50 35 6
a 35 36 7
a 36 35 7
a 36 51 6
a 51 36 6
a 38 53 8
a 53 38 8
a 38 39 1
a 39 38 1
a 39 54 3
a 54 39 3
a 39 40 9
a 40 39 9
a 40 55 9
a 55 40 9
a 40 41 1
a 41 40 1
a 41 56 9
a 56 41 9
a 41 42 6
a 42 41 6
a 42 57 1
a 57 42 1
a 42 43 9
a 43 42 9
a 43 58 4
a 58 43 4
a 43 44 5
a 44 43 5
a 44 59 7
a 59 44 7
a 44 45 7
a 45 44 7
a 46 61 10
a 61 46 10
a 48 63 10
a 63 48 10
a 48 49 5
a 49 48 5
a 49 64 8
a 64 49 8
a 49 50 10
a 50 49 10
a 50 65 2
a 65 50 2
a 50 51 10
a 51 50 10
a 51 66 4
a 66 51 4
a 51 52 4
a 52 51 4
a 52 67 1
a 67 52 1
a 52 53 3
a 53 52 3
a 53 68 7
a 68 53 7
a 53 54 3
a 54 53 3
a 54 69 5
a 69 54 5
a 54 55 4
a 55 54 4
a 55 70 7
a 70 55 7
a 55 56 3
a 56 55 3
a 56 71 7
a 71 56 7
a 56 57 5
a 57 56 5
a 57 72 9
a 72 57 9
a 57 58 1
a 58 57 1
a 58 73 9
a 73 58 9
a 58 59 7
a 59 58 7
a 59 74 6
a 74 59 6
a 61 76 6
a 76 61 6
a 61 62 5
a 62 61 5
a 62 77 8
a 77 62 8
a 62 63 2
a 63 62 2
a 63 78 5
a 78 63 5
a 63 64 2
a 64 63 2
a 64 79 8
a 79 64 8
a 64 65 9
a 65 64 9
a 65 80 9
a 80 65 9
a 65 66 9
a 66 65 9
a 66 81 7
a 81 66 7
a 66 67 6
a 67 66 6
a 67 82 9
a 82 67 9
a 67 68 6
a 68 67 6
a 68 83 3
a 83 68 3
a 68 69 3
a 69 68 3
a 69 84 7
a 84 69 7
a 69 70 1
a 70 69 1
a 70 85 10
a 85 70 10
a 70 71 10
a 71 70 10
a 71 86 3
a 86 71 3
a 71 72 2
a 72 71 2
a 72 87 5
a 87 72 5
a 72 73 8
a 73 72 8
a 73 88 2
a 88 73 2
a 73 74 9
a 74 73 9
a 74 89 10
a 89 74 10
a 74 75 5
a 75 74 5
a 75 90 8
a 90 75 8
a 76 91 5
a 91 76 5
a 76 77 6
a 77 76 6
a 77 92 2
a 92 77 2
a 77 78 2
a 78 77 2
a 78 93 9
a 93 78 9
a 78 79 7
a 79 78 7
a 79 94 7
a 94 79 7
a 79 80 7
a 80 79 7
a 80 95 3
a 95 80 3
a 80 81 8
a 81 80 8
a 81 96 2
a 96 81 2
a 81 82 7
a 82 81 7
a 82 97 4
a 97 82 4
a 82 83 2
a 83 82 2
a 83 98 2
a 98 83 2
a 83 84 10
a 84 83 10
a 84 99 3
a 99 84 3
a 84 85 4
a 85 84 4
a 85 100 1
a 100 85 1
a 85 86 8
a 86 85 8
a 86 101 1
a 101 86 1
a 86 87 9
a 87 86 9
a 87 102 9
a 102 87 9
a 87 88 8
a 88 87 8
a 88 103 3
a 103 88 3
a 88 89 2
a 89 88 2
a 89 104 9
a 104 89 9
a 89 90 9
a 90 89 9
a 90 105 5
a 105 90 5
a 91 106 10
a 106 91 10
a 91 92 2
a 92 91 2
a 92 107 3
a 107 92 3
a 92 93 4
a 93 92 4
a 93 108 5
a 108 93 5
a 93 94 1
a 94 93 1
a 94 95 10
a 95 94 10
a 95 110 8
a 110 95 8
a 95 96 9
a 96 95 9
a 96 111 8
a 111 96 8
a 96 97 5
a 97 96 5
a 97 112 6
a 112 97 6
a 97 98 2
a 98 97 2
a 98 113 4
a 113 98 4
a 98 99 4
a 99 98 4
a 99 114 1
a 114 99 1
a 99 100 5
a 100 99 5
a 100 115 8
a 115 100 8
a 100 101 7
a 101 100 7
a 101 116 9
a 116 101 9
a 101 102 1
a 102 101 1
a 102 117 3
a 117 102 3
a 102 103 4
a 103 102 4
a 103 118 2
a 118 103 2
a 103 104 6
a 104 103 6
a 104 119 7
a 119 104 7
a 104 105 7
a 105 104 7
a 105 120 5
a 120 105 5
a 106 121 2
a 121 106 2
a 106 107 3
a 107 106 3
a 107 122 7
a 122 107 7
a 107 108 5
a 108 107 5
a 108 123 1
a 123 108 1
a 110 125 5
a 125 110 5
a 110 111 3
a 111 110 3
a 111 126 1
a 126 111 1
a 111 112 2
a 112 111 2
a 112 113 4
a 113 112 4
a 113 128 9
a 128 113 9
a 113 114 3
a 114 113 3
a 114 129 9
a 129 114 9
a 114 115 10
a 115 114 10
a 115 130 7
a 130 115 7
a 115 116 9
a 116 115 9
a 116 131 10
a 131 116 10
a 116 117 8
a 117 116 8
a 117 132 8
a 132 117 8
a 117 118 10
a 118 117 10
a 118 133 1
a 133 118 1
a 118 119 10
a 119 118 10
a 119 134 6
a 134 119 6
a 119 120 10
a 120 119 10
a 120 135 7
a 135 120 7
a 121 136 7
a 136 121 7
a 121 122 2
a 122 121 2
a 122 137 6
a 137 122 6
a 122 123 5
a 123 122 5
a 123 138 1
a 138 123 1
a 123 124 3
a 124 123 3
a 124 139 9
a 139 124 9
a 124 125 9
a 125 124 9
a 125 140 9
a 140 125 9
a 125 126 7
a 126 125 7
a 126 141 6
a 141 126 6
a 128 143 3
a 143 128 3
a 128 129 5
a 129 128 5
a 129 144 4
a 144 129 4
a 129 130 6
a 130 129 6
a 130 145 9
a 145 130 9
a 130 131 10
a 131 130 10
a 131 132 3
a 132 131 3
a 132 147 6
a 147 132 6
a 132 133 10
a 133 132 10
a 133 148 2
a 148 133 2
a 133 134 6
a 134 133 6
a 134 149 6
a 149 134 6
a 134 135 9
a 135 134 9
a 135 150 5
a 150 135 5
a 136 151 6
a 151 136 6
a 136 137 2
a 137 136 2
a 137 152 7
a 152 137 7
a 137 138 7
a 138 137 7
a 138 153 6
a 153 138 6
a 138 139 1
a 139 138 1
a 139 154 6
a 154 139 6
a 139 140 1
a 140 139 1
a 140 155 2
a 155 140 2
a 140 141 9
a 141 140 9
a 141 156 8
a 156 141 8
a 141 142 7
a 142 141 7
a 142 157 5
a 157 142 5
a 142 143 8
a 143 142 8
a 143 158 5
a 158 143 5
a 143 144 9
a 144 143 9
a 144 159 7
a 159 144 7
a 144 145 7
a 145 144 7
a 145 160 8
a 160 145 8
a 147 162 4
a 162 147 4
a 147 148 10
a 148 147 10
a 148 163 6
a 163 148 6
a 148 149 9
a 149 148 9
a 149 164 5
a 164 149 5
a 149 150 10
a 150 149 10
a 150 165 4
a 165 150 4
a 151 166 8
a 166 151 8
a 151 152 7
a 152 151 7
a 152 167 2
a 167 152 2
a 152 153 8
a 153 152 8
a 153 168 2
a 168 153 2
a 153 154 4
a 154 153 4
a 154 169 2
a 169 154 2
a 154 155 4
a 155 154 4
a 155 170 9
a 170 155 9
a 155 156 3
a 156 155 3
a 156 171 9
a 171 156 9
a 156 157 6
a 157 156 6
a 157 172 2
a 172 157 2
a 157 158 10
a 158 157 10
a 158 173 8
a 173 158 8
a 158 159 10
a 159 158 10
a 159 174 4
a 174 159 4
a 159 160 5
a 160 159 5
a 160 175 4
a 175 160 4
a 160 161 9
a 161 160 9
a 161 176 10
a 176 161 10
a 161 162 2
a 162 161 2
a 162 163 4
a 163 162 4
a 163 178 8
a 178 163 8
a 163 164 3
a 164 163 3
a 164 179 5
a 179 164 5
a 164 165 9
a 165 164 9
a 165 180 9
a 180 165 9
a 166 181 6
a 181 166 6
a 166 167 5
a 167 166 5
a 167 182 1
a 182 167 1
a 167 168 9
a 168 167 9
a 168 183 1
a 183 168 1
a 168 169 3
a 169 168 3
a 169 184 9
a 184 169 9
a 169 170 2
a 170 169 2
a 170 185 10
a 185 170 10
a 170 171 10
a 171 170 10
a 171 186 10
a 186 171 10
a 171 172 5
a 172 171 5
a 172 187 5
a 187 172 5
a 172 173 9
a 173 172 9
a 173 188 3
a 188 173 3
a 173 174 7
a 174 173 7
a 174 189 7
a 189 174 7
a 174 175 6
a 175 174 6
a 175 190 3
a 190 175 3
a 175 176 1
a 176 175 1
a 176 191 10
a 191 176 10
a 178 193 7
a 193 178 7
a 178 179 2
a 179 178 2
a 179 194 2
a 194 179 2
a 179 180 3
a 180 179 3
a 180 195 1
a 195 180 1
a 181 196 4
a 196 181 4
a 181 182 5
a 182 181 5
a 182 197 6
a 197 182 6
a 182 183 4
a 183 182 4
a 183 198 10
a 198 183 10
a 183 184 1
a 184 183 1
a 184 199 1
a 199 184 1
a 184 185 10
a 185 184 10
a 185 200 1
a 200 185 1
a 185 186 3
a 186 185 3
a 186 201 2
a 201 186 2
a 186 187 3
a 187 186 3
a 187 202 7
a 202 187 7
a 187 188 2
a 188 187 2
a 188 203 8
a 203 188 8
a 188 189 2
a 189 188 2
a 189 204 6
a 204 189 6
a 189 190 5
a 190 189 5
a 190 205 10
a 205 190 10
a 190 191 1
a 191 190 1
a 191 206 3
a 206 191 3
a 191 192 3
a 192 191 3
a 192 207 5
a 207 192 5
a 192 193 7
a 193 192 7
a 193 194 9
a 194 193 9
a 194 209 4
a 209 194 4
a 194 195 6
a 195 194 6
a 195 210 2
a 210 195 2
a 196 211 6
a 211 196 6
a 196 197 1
a 197 196 1
a 197 212 6
a 212 197 6
a 197 198 8
a 198 197 8
a 198 213 5
a 213 198 5
a 198 199 6
a 199 198 6
a 199 214 8
a 214 199 8
a 199 200 4
a 200 199 4
a 200 215 8
a 215 200 8
a 200 201 2
a 201 200 2
a 201 216 6
a 216 201 6
a 201 202 7
a 202 201 7
a 202 203 4
a 203 202 4
a 203 204 7
a 204 203 7
a 204 219 9
a 219 204 9
a 204 205 10
a 205 204 10
a 205 220 6
a 220 205 6
a 205 206 3
a 206 205 3
a 206 221 6
a 221 206 6
a 206 207 5
a 207 206 5
a 207 222 8
a 222 207 8
a 209 224 1
a 224 209 1
a 209 210 2
a 210 209 2
a 210 225 2
a 225 210 2
a 211 212 6
a 212 211 6
a 212 213 6
a 213 212 6
a 213 214 3
a 214 213 3
a 214 215 4
a 215 214 4
a 215 216 9
a 216 215 9
a 219 220 10
a 220 219 10
a 220 221 5
a 221 220 5
a 221 222 9
a 222 221 9
a 222 223 10
a 223 222 10
a 223 224 8
a 224 223 8
a 224 225 4
a 225 224 4
